NAME:14_7
TYPE: TSP
DIMENSION: 14
EDGE_WEIGHT_TYPE: EXPLICIT
EDGE_WEIGHT_FORMAT: UPPER_ROW
EDGE_WEIGHT_SECTION
54 54 54 54 54 54 0 21 27 23 19 25 19 54 54 54 54 54 25 0 24 25 24 25 21 54 54 54 54 19 20 0 19 18 19 20 54 54 54 23 21 22 0 22 23 24 54 54 19 22 26 24 0 24 20 54 18 21 20 18 18 0 19 22 25 26 26 21 27 0 54 54 54 54 54 54 54 54 54 54 54 54 54 54 54 54 54 54 54 54 54 